4 
5  36 51 
6  06 25 32 40 47 55 
7  02 10 17 25 32 40 47 55 
8  02 10 17 25 32 40 47 55 
9  02 17 32 47 
10  02 17 32 47 
11  02 17 32 47 
12  02 17 32 48 
13  02 17 32 47 
14  02 17 32 47 54 
15  02 10 17 25 32 40 47 55 
16  02 10 17 25 32 40 47 55 
17  02 10 17 25 32 40 47 55 
18  02 10 17 24 32 47 
19  02 17 32 47 
20  02 17 32 44 59 
21  14 29 44 59 
22  14 27 42 58 
23  13 
0 
